c Random generated cnf formula, satisfiable: false
p cnf 10 50
-9 10 -2 0
-4 2 7 0
-10 -5 -9 0
-1 -7 4 0
7 -5 9 0
-2 -8 -5 0
3 10 9 0
-4 -1 -7 0
6 5 8 0
8 -10 -3 0
-1 2 -3 0
-3 1 -6 0
-2 -1 -10 0
-6 4 5 0
1 2 -10 0
-5 4 -10 0
-3 -2 10 0
-3 -7 8 0
5 7 -1 0
5 2 -8 0
8 7 4 0
1 -10 -4 0
1 8 7 0
-8 -2 1 0
-6 10 -7 0
-2 5 -9 0
-9 -10 8 0
-8 6 3 0
-8 2 5 0
-4 9 -6 0
-1 -3 8 0
-6 2 -9 0
-10 -5 -6 0
-3 -1 10 0
-9 -1 -3 0
-6 2 -4 0
-3 -5 10 0
4 -10 2 0
-4 -5 6 0
-10 -5 -6 0
-8 10 4 0
2 10 -5 0
-9 10 1 0
5 -6 -10 0
-10 -2 5 0
9 3 2 0
-10 -1 -8 0
-8 -9 -5 0
-7 -5 -10 0
-3 -2 6 0
